0	3	13	35	41	42	33	22	36	11
3	0	21	25	18	26	38	16	30	7
13	21	0	10	27	32	40	31	45	29
35	25	10	0	12	24	39	23	44	43
41	18	27	12	0	1	17	2	20	37
42	26	32	24	1	0	9	6	19	34
33	38	40	39	17	9	0	8	5	28
22	16	31	23	2	6	8	0	4	15
36	30	45	44	20	19	5	4	0	14
11	7	29	43	37	34	28	15	14	0